QPLIB_3832
QBB
maximize
561 # number of variables
1088 # number of quadratic terms in objective
73 1 -4.0
259 1 4.0
260 1 -4.0
278 1 4.0
52 2 4.0
264 2 -4.0
399 2 4.0
432 2 -4.0
4 3 -4.0
346 3 4.0
402 3 4.0
473 3 -4.0
21 4 4.0
342 4 4.0
343 4 -4.0
6 5 4.0
32 5 -4.0
212 5 4.0
270 5 -4.0
85 6 -4.0
214 6 -4.0
380 6 4.0
209 7 -4.0
264 7 -4.0
437 7 4.0
470 7 4.0
9 8 4.0
210 8 4.0
217 8 -4.0
256 8 -4.0
211 9 -4.0
219 9 -4.0
408 9 4.0
11 10 4.0
79 10 -4.0
147 10 4.0
312 10 -4.0
182 11 4.0
311 11 -4.0
450 11 -4.0
13 12 4.0
14 12 -4.0
457 12 -4.0
497 12 4.0
215 13 -4.0
222 13 -4.0
389 13 4.0
101 14 4.0
218 14 -4.0
420 14 4.0
16 15 4.0
136 15 4.0
291 15 -4.0
330 15 -4.0
178 16 4.0
290 16 -4.0
491 16 -4.0
18 17 4.0
19 17 -4.0
422 17 -4.0
540 17 4.0
80 18 4.0
213 18 -4.0
220 18 -4.0
109 19 4.0
220 19 -4.0
455 19 4.0
21 20 4.0
209 20 -4.0
348 20 4.0
475 20 -4.0
514 21 -4.0
517 21 -4.0
271 22 4.0
328 22 4.0
413 22 -4.0
530 22 -4.0
24 23 4.0
127 23 4.0
313 23 -4.0
357 23 -4.0
98 24 -4.0
170 24 4.0
533 24 -4.0
26 25 4.0
27 25 -4.0
81 25 4.0
391 25 -4.0
46 26 -4.0
218 26 -4.0
390 26 4.0
115 27 4.0
222 27 -4.0
495 27 4.0
29 28 4.0
51 28 -4.0
315 28 4.0
459 28 -4.0
71 29 -4.0
81 29 -4.0
501 29 4.0
31 30 -4.0
372 30 4.0
557 30 4.0
558 30 -4.0
124 31 4.0
150 31 4.0
513 31 -4.0
44 32 4.0
86 32 -4.0
442 32 4.0
34 33 -4.0
88 33 4.0
288 33 4.0
355 33 -4.0
157 34 4.0
158 34 4.0
246 34 -4.0
36 35 4.0
122 35 4.0
331 35 -4.0
385 35 -4.0
87 36 -4.0
128 36 -4.0
531 36 4.0
38 37 4.0
63 37 4.0
294 37 -4.0
535 37 -4.0
122 38 -4.0
291 38 -4.0
387 38 4.0
276 39 -4.0
335 39 4.0
423 39 -4.0
542 39 4.0
315 40 -4.0
335 40 4.0
366 40 4.0
394 40 -4.0
42 41 4.0
43 41 4.0
132 41 -4.0
305 41 -4.0
519 42 -4.0
217 43 4.0
407 43 -4.0
410 43 -4.0
217 44 -4.0
288 44 -4.0
309 44 4.0
78 45 4.0
257 45 -4.0
309 45 4.0
383 45 -4.0
47 46 4.0
57 46 4.0
292 46 -4.0
147 47 -4.0
235 47 -4.0
418 47 4.0
49 48 4.0
258 48 -4.0
364 48 4.0
392 48 -4.0
64 49 4.0
221 49 -4.0
295 49 -4.0
51 50 -4.0
104 50 4.0
364 50 4.0
428 50 -4.0
153 51 4.0
154 51 4.0
124 52 -4.0
282 52 4.0
402 52 -4.0
54 53 4.0
211 53 -4.0
442 53 -4.0
521 53 4.0
479 54 -4.0
69 55 4.0
272 55 -4.0
326 55 4.0
416 55 -4.0
136 56 -4.0
191 56 4.0
213 56 4.0
230 56 -4.0
213 57 -4.0
456 57 4.0
496 57 -4.0
247 58 4.0
420 58 4.0
423 58 -4.0
456 58 -4.0
93 59 4.0
276 59 -4.0
393 59 4.0
465 59 -4.0
289 60 -4.0
353 60 4.0
415 60 4.0
448 60 -4.0
312 61 -4.0
415 61 4.0
449 61 4.0
530 61 -4.0
127 62 -4.0
197 62 4.0
215 62 4.0
227 62 -4.0
215 63 -4.0
421 63 4.0
539 63 -4.0
389 64 4.0
421 64 -4.0
459 64 -4.0
83 65 4.0
258 65 -4.0
426 65 4.0
505 65 -4.0
210 66 -4.0
257 66 -4.0
382 66 4.0
444 66 4.0
310 67 -4.0
382 67 4.0
447 67 4.0
488 67 -4.0
69 68 -4.0
135 68 4.0
447 68 4.0
490 68 -4.0
151 69 -4.0
170 69 4.0
89 70 -4.0
122 70 -4.0
203 70 4.0
218 70 4.0
80 71 4.0
390 71 -4.0
542 71 4.0
277 72 -4.0
462 72 4.0
464 72 4.0
547 72 -4.0
105 73 4.0
396 73 -4.0
464 73 4.0
75 74 4.0
370 74 -4.0
514 74 4.0
556 74 -4.0
181 75 4.0
299 75 -4.0
431 75 -4.0
212 76 -4.0
272 76 -4.0
410 76 4.0
527 76 4.0
78 77 -4.0
126 77 4.0
487 77 4.0
532 77 -4.0
145 78 -4.0
178 78 4.0
386 79 4.0
453 79 4.0
535 79 -4.0
359 80 -4.0
361 80 -4.0
334 81 -4.0
538 81 4.0
83 82 -4.0
94 82 4.0
279 82 -4.0
504 82 4.0
154 83 -4.0
548 83 4.0
176 84 4.0
281 84 -4.0
398 84 -4.0
470 84 4.0
520 85 4.0
97 86 4.0
289 86 -4.0
381 86 4.0
88 87 -4.0
121 87 4.0
529 87 4.0
134 88 -4.0
182 88 4.0
90 89 4.0
417 89 -4.0
493 89 4.0
121 90 -4.0
196 90 4.0
357 90 -4.0
92 91 4.0
248 91 -4.0
260 91 -4.0
545 91 4.0
192 92 -4.0
459 92 4.0
460 92 -4.0
224 93 -4.0
316 93 -4.0
506 93 4.0
224 94 -4.0
242 94 4.0
250 94 -4.0
167 95 4.0
263 95 -4.0
369 95 -4.0
434 95 4.0
270 96 -4.0
480 96 4.0
308 97 -4.0
446 97 4.0
486 97 -4.0
99 98 4.0
114 98 4.0
328 98 -4.0
134 99 4.0
384 99 -4.0
446 99 -4.0
114 100 -4.0
227 100 4.0
330 100 -4.0
452 100 4.0
535 101 4.0
536 101 -4.0
537 101 -4.0
199 102 -4.0
423 102 4.0
424 102 -4.0
502 102 4.0
154 103 4.0
226 103 4.0
278 103 -4.0
503 103 -4.0
193 104 4.0
226 104 -4.0
336 104 -4.0
226 105 -4.0
237 105 4.0
262 105 -4.0
162 106 4.0
251 106 -4.0
339 106 -4.0
401 106 4.0
256 107 -4.0
440 107 4.0
290 108 4.0
327 108 4.0
356 108 -4.0
414 108 -4.0
198 109 -4.0
493 109 4.0
494 109 -4.0
228 110 4.0
261 110 -4.0
316 110 4.0
463 110 -4.0
117 111 -4.0
319 111 -4.0
372 111 4.0
555 111 4.0
125 112 4.0
229 112 -4.0
284 112 4.0
302 112 -4.0
120 113 -4.0
311 113 4.0
329 113 -4.0
354 113 4.0
311 114 -4.0
491 114 4.0
204 115 -4.0
453 115 4.0
454 115 -4.0
231 116 4.0
249 116 -4.0
336 116 4.0
427 116 -4.0
118 117 4.0
119 117 4.0
232 117 -4.0
263 118 -4.0
297 118 4.0
337 118 -4.0
264 119 -4.0
299 119 -4.0
342 119 4.0
195 120 4.0
382 120 4.0
383 120 -4.0
329 121 -4.0
533 121 4.0
533 122 4.0
131 123 -4.0
236 123 4.0
241 123 -4.0
365 123 4.0
251 124 4.0
281 124 -4.0
238 125 -4.0
128 126 4.0
356 126 -4.0
386 126 -4.0
128 127 4.0
292 127 -4.0
331 128 -4.0
359 129 4.0
391 129 -4.0
494 129 -4.0
540 129 4.0
180 130 -4.0
185 130 4.0
364 130 4.0
543 130 -4.0
199 131 4.0
393 131 4.0
394 131 -4.0
164 132 4.0
325 132 -4.0
407 132 4.0
164 133 -4.0
195 133 4.0
309 133 4.0
381 133 -4.0
309 134 4.0
310 134 -4.0
137 135 4.0
384 135 -4.0
417 135 -4.0
137 136 4.0
273 136 -4.0
313 137 -4.0
532 137 -4.0
388 138 4.0
422 138 -4.0
454 138 -4.0
497 138 4.0
180 139 4.0
296 139 -4.0
335 139 4.0
499 139 -4.0
141 140 -4.0
142 140 4.0
243 140 -4.0
282 140 4.0
181 141 4.0
300 141 4.0
345 141 -4.0
252 142 -4.0
254 142 4.0
268 142 -4.0
156 143 4.0
379 143 4.0
409 143 -4.0
440 143 -4.0
156 144 -4.0
190 144 4.0
288 144 4.0
352 144 -4.0
288 145 4.0
289 145 -4.0
529 145 4.0
202 146 -4.0
449 146 4.0
529 146 4.0
530 146 -4.0
148 147 4.0
274 147 -4.0
291 148 -4.0
449 148 4.0
490 148 -4.0
174 149 4.0
277 149 -4.0
315 149 4.0
460 149 -4.0
186 150 4.0
252 150 -4.0
374 150 -4.0
271 151 4.0
272 151 -4.0
487 151 4.0
206 152 -4.0
487 152 4.0
488 152 -4.0
490 152 4.0
258 153 -4.0
363 153 4.0
424 153 -4.0
296 154 -4.0
162 155 4.0
266 155 4.0
283 155 -4.0
555 155 -4.0
157 156 4.0
307 156 -4.0
310 157 -4.0
483 157 -4.0
257 158 -4.0
415 158 -4.0
447 158 4.0
188 159 -4.0
248 159 4.0
391 159 4.0
425 159 -4.0
276 160 4.0
277 160 -4.0
464 160 -4.0
546 160 4.0
466 161 4.0
546 161 4.0
547 161 -4.0
550 161 -4.0
513 162 -4.0
514 162 -4.0
164 163 -4.0
256 163 4.0
306 163 4.0
523 163 -4.0
165 164 4.0
257 165 4.0
289 165 -4.0
443 165 -4.0
504 166 4.0
505 166 -4.0
507 166 4.0
508 166 -4.0
265 167 4.0
469 167 -4.0
471 167 -4.0
169 168 4.0
270 168 4.0
352 168 -4.0
409 168 -4.0
177 169 4.0
350 169 -4.0
380 169 -4.0
383 170 -4.0
385 170 -4.0
274 171 4.0
533 171 4.0
534 171 -4.0
536 171 -4.0
173 172 4.0
273 172 4.0
274 172 -4.0
333 172 -4.0
387 173 -4.0
420 173 -4.0
495 173 4.0
188 174 4.0
498 174 -4.0
500 174 -4.0
464 175 4.0
465 175 -4.0
467 175 -4.0
549 175 4.0
282 176 4.0
433 176 -4.0
436 176 -4.0
324 177 -4.0
355 178 -4.0
357 178 -4.0
198 179 -4.0
293 179 4.0
491 179 4.0
492 179 -4.0
184 180 4.0
458 180 -4.0
400 181 -4.0
403 181 -4.0
328 182 -4.0
330 182 -4.0
204 183 -4.0
314 183 4.0
450 183 4.0
451 183 -4.0
420 184 4.0
421 184 -4.0
424 184 -4.0
316 185 4.0
544 185 -4.0
545 185 -4.0
370 186 4.0
371 186 -4.0
373 186 -4.0
327 187 4.0
525 187 4.0
526 187 -4.0
528 187 -4.0
389 188 4.0
390 188 -4.0
336 189 4.0
500 189 4.0
501 189 -4.0
503 189 -4.0
354 190 4.0
485 190 -4.0
486 190 -4.0
359 191 -4.0
454 191 -4.0
536 191 4.0
365 192 4.0
461 192 4.0
463 192 -4.0
194 193 4.0
366 193 -4.0
467 193 -4.0
368 194 4.0
430 194 -4.0
548 194 -4.0
445 195 -4.0
446 195 -4.0
198 196 4.0
386 196 -4.0
536 196 -4.0
198 197 4.0
388 197 -4.0
494 197 -4.0
425 199 4.0
427 199 -4.0
201 200 4.0
405 200 -4.0
208 201 -4.0
559 201 4.0
560 201 -4.0
417 202 4.0
531 202 4.0
534 202 -4.0
204 203 4.0
419 203 -4.0
537 203 -4.0
452 204 4.0
438 205 -4.0
561 205 4.0
451 206 4.0
489 206 4.0
492 206 -4.0
469 207 4.0
551 207 4.0
552 207 -4.0
554 207 -4.0
561 208 4.0
435 209 4.0
473 209 -4.0
246 210 4.0
522 210 4.0
240 212 4.0
482 212 4.0
273 213 -4.0
479 214 -4.0
274 215 -4.0
270 216 -4.0
519 216 -4.0
308 217 -4.0
293 218 -4.0
256 219 -4.0
314 220 -4.0
453 220 4.0
392 221 -4.0
455 221 4.0
496 221 -4.0
332 222 -4.0
493 222 4.0
362 223 -4.0
495 223 4.0
539 223 -4.0
542 223 -4.0
297 224 -4.0
546 224 4.0
233 225 -4.0
476 225 -4.0
317 226 -4.0
451 227 -4.0
535 227 -4.0
279 228 -4.0
337 228 -4.0
366 228 -4.0
244 229 -4.0
450 230 4.0
492 230 -4.0
493 230 -4.0
297 231 -4.0
367 231 -4.0
394 231 -4.0
279 232 4.0
281 232 -4.0
367 232 -4.0
234 233 -4.0
267 233 4.0
321 233 -4.0
254 234 -4.0
453 235 -4.0
491 235 4.0
534 235 -4.0
317 236 -4.0
395 236 -4.0
428 236 -4.0
251 237 -4.0
299 237 -4.0
395 237 -4.0
239 238 -4.0
253 238 4.0
347 238 -4.0
268 239 -4.0
271 240 -4.0
326 240 4.0
524 240 4.0
337 241 -4.0
429 241 -4.0
465 241 -4.0
263 242 -4.0
319 242 -4.0
429 242 -4.0
244 243 4.0
266 243 -4.0
285 243 -4.0
245 244 -4.0
375 244 -4.0
285 245 -4.0
353 246 4.0
484 246 4.0
248 247 -4.0
275 247 -4.0
361 247 -4.0
276 248 -4.0
367 249 -4.0
466 249 -4.0
505 249 -4.0
281 250 -4.0
339 250 -4.0
466 250 -4.0
509 251 -4.0
253 252 -4.0
265 252 4.0
283 253 -4.0
303 253 -4.0
255 254 -4.0
559 254 -4.0
303 255 -4.0
260 258 -4.0
296 259 -4.0
502 259 4.0
504 259 4.0
504 260 -4.0
395 261 -4.0
507 261 -4.0
547 261 -4.0
299 262 -4.0
369 262 -4.0
507 262 -4.0
340 263 -4.0
265 264 4.0
301 265 -4.0
267 266 -4.0
344 266 -4.0
301 267 -4.0
322 267 -4.0
269 268 -4.0
516 268 -4.0
322 269 -4.0
525 271 4.0
411 272 -4.0
331 273 -4.0
277 275 -4.0
362 275 -4.0
393 275 4.0
429 278 -4.0
549 278 -4.0
280 279 -4.0
319 280 -4.0
398 280 -4.0
549 280 -4.0
320 282 -4.0
284 283 -4.0
373 283 -4.0
320 284 -4.0
348 284 -4.0
286 285 -4.0
474 285 -4.0
348 286 -4.0
325 287 -4.0
351 287 4.0
443 287 -4.0
480 287 -4.0
312 290 -4.0
355 290 -4.0
293 291 -4.0
313 292 -4.0
358 292 4.0
358 293 -4.0
358 294 -4.0
360 294 -4.0
455 294 -4.0
296 295 -4.0
334 295 -4.0
426 295 4.0
298 297 -4.0
339 298 -4.0
431 298 -4.0
550 298 4.0
340 300 -4.0
435 300 -4.0
554 300 -4.0
302 301 -4.0
403 301 -4.0
345 302 -4.0
376 302 -4.0
304 303 -4.0
517 303 -4.0
376 304 -4.0
306 305 -4.0
378 306 -4.0
408 306 -4.0
324 307 4.0
483 307 -4.0
520 307 -4.0
310 308 -4.0
352 308 4.0
383 311 -4.0
450 312 4.0
314 313 -4.0
387 314 -4.0
316 315 4.0
318 317 -4.0
509 317 -4.0
369 318 -4.0
468 318 -4.0
508 318 4.0
370 319 -4.0
321 320 -4.0
436 320 -4.0
374 321 -4.0
405 321 -4.0
323 322 -4.0
560 322 -4.0
405 323 -4.0
406 324 -4.0
441 324 -4.0
411 325 -4.0
525 325 4.0
327 326 4.0
412 326 4.0
328 327 -4.0
330 329 -4.0
416 329 -4.0
332 331 -4.0
418 332 -4.0
452 332 4.0
389 333 -4.0
418 333 -4.0
538 333 4.0
391 334 -4.0
500 334 4.0
336 335 4.0
338 337 -4.0
398 338 -4.0
467 338 4.0
511 338 -4.0
341 339 -4.0
343 340 -4.0
512 340 -4.0
343 341 -4.0
470 341 -4.0
511 341 -4.0
344 342 4.0
469 342 -4.0
344 343 -4.0
404 344 -4.0
347 345 -4.0
471 345 -4.0
376 346 4.0
438 346 -4.0
558 346 4.0
404 347 -4.0
438 347 -4.0
349 348 -4.0
438 349 -4.0
351 350 -4.0
439 351 -4.0
481 351 -4.0
481 352 -4.0
354 353 4.0
445 353 4.0
355 354 -4.0
357 356 -4.0
448 356 -4.0
359 358 -4.0
361 360 -4.0
419 360 4.0
457 360 -4.0
363 361 -4.0
422 362 -4.0
461 362 4.0
461 363 -4.0
541 363 -4.0
365 364 4.0
366 365 -4.0
368 367 -4.0
431 368 -4.0
553 368 -4.0
371 369 -4.0
468 370 -4.0
434 371 -4.0
553 371 -4.0
373 372 4.0
433 372 -4.0
437 373 -4.0
375 374 -4.0
514 374 -4.0
437 375 -4.0
475 375 -4.0
377 376 -4.0
475 377 -4.0
379 378 -4.0
478 379 -4.0
521 379 -4.0
381 380 -4.0
443 380 -4.0
521 381 -4.0
485 382 4.0
385 384 -4.0
488 384 -4.0
386 385 -4.0
388 387 -4.0
390 388 -4.0
425 392 4.0
457 392 -4.0
500 393 4.0
506 394 -4.0
397 395 -4.0
397 396 -4.0
506 396 -4.0
509 396 -4.0
399 397 -4.0
468 397 -4.0
400 398 -4.0
400 399 -4.0
510 399 -4.0
401 400 -4.0
403 401 4.0
435 401 4.0
434 402 4.0
472 402 4.0
472 403 -4.0
556 404 -4.0
559 404 -4.0
473 405 4.0
407 406 -4.0
518 407 -4.0
410 408 -4.0
483 408 -4.0
411 409 -4.0
412 409 -4.0
412 410 -4.0
413 411 -4.0
413 412 -4.0
414 413 -4.0
416 414 -4.0
527 414 4.0
531 415 4.0
531 416 -4.0
452 417 -4.0
419 418 -4.0
421 419 -4.0
424 422 4.0
497 423 -4.0
462 425 4.0
427 426 4.0
461 426 4.0
428 427 -4.0
548 428 -4.0
430 429 -4.0
432 430 -4.0
511 430 -4.0
433 431 -4.0
433 432 -4.0
552 432 -4.0
436 434 4.0
515 435 4.0
515 436 -4.0
516 437 -4.0
440 439 -4.0
442 440 -4.0
444 441 -4.0
519 441 4.0
523 441 -4.0
444 442 -4.0
445 443 -4.0
445 444 -4.0
448 446 -4.0
489 447 4.0
489 448 -4.0
451 449 -4.0
456 454 -4.0
458 455 4.0
458 456 -4.0
460 457 4.0
460 458 -4.0
540 459 -4.0
463 462 4.0
544 462 -4.0
465 463 -4.0
551 466 -4.0
551 467 -4.0
469 468 -4.0
471 470 4.0
557 471 -4.0
474 472 -4.0
559 472 -4.0
476 473 -4.0
476 474 -4.0
557 474 -4.0
477 475 -4.0
477 476 -4.0
480 478 -4.0
481 479 4.0
482 479 -4.0
482 480 -4.0
484 481 -4.0
484 482 -4.0
485 483 -4.0
485 484 -4.0
488 486 -4.0
529 486 -4.0
528 487 -4.0
532 489 4.0
492 490 -4.0
496 494 -4.0
498 495 4.0
498 496 -4.0
499 497 4.0
499 498 -4.0
501 499 -4.0
502 501 -4.0
503 502 4.0
505 503 -4.0
508 506 -4.0
510 507 -4.0
510 508 -4.0
512 509 -4.0
512 510 -4.0
513 511 -4.0
513 512 -4.0
516 515 -4.0
517 515 -4.0
561 516 4.0
561 517 -4.0
520 518 -4.0
522 519 -4.0
522 520 -4.0
524 521 -4.0
524 522 -4.0
525 523 -4.0
526 523 -4.0
526 524 -4.0
527 526 4.0
528 527 -4.0
530 528 -4.0
534 532 -4.0
538 537 -4.0
539 537 -4.0
541 538 4.0
541 539 -4.0
543 540 4.0
543 541 -4.0
544 542 4.0
544 543 -4.0
546 545 -4.0
547 545 -4.0
550 548 -4.0
552 549 -4.0
552 550 -4.0
553 551 -4.0
554 553 -4.0
555 554 -4.0
556 555 -4.0
558 556 -4.0
560 557 -4.0
560 558 -4.0
0.0 # default value for linear coefficients in objective
353 # number of non-default linear coefficients in objective
209 2.0
210 -2.0
211 2.0
212 -2.0
213 2.0
214 2.0
215 2.0
216 2.0
217 2.0
218 2.0
219 2.0
220 2.0
221 2.0
222 2.0
223 2.0
224 2.0
225 2.0
226 2.0
227 2.0
228 2.0
229 2.0
230 2.0
231 2.0
232 2.0
233 2.0
234 2.0
235 2.0
236 2.0
237 2.0
238 2.0
239 2.0
240 -2.0
241 4.0
242 2.0
243 2.0
244 2.0
245 2.0
246 -2.0
247 2.0
248 2.0
249 4.0
250 4.0
251 2.0
252 2.0
253 2.0
254 2.0
255 2.0
256 2.0
257 2.0
258 4.0
259 -2.0
260 4.0
261 4.0
262 4.0
263 4.0
264 2.0
265 -2.0
266 2.0
267 2.0
268 4.0
269 2.0
270 2.0
271 -2.0
272 4.0
273 2.0
274 2.0
275 2.0
276 2.0
277 4.0
278 2.0
279 2.0
280 4.0
281 4.0
282 -2.0
283 4.0
284 2.0
285 4.0
286 2.0
287 2.0
288 -2.0
289 4.0
290 2.0
291 4.0
292 2.0
293 2.0
294 4.0
295 2.0
296 4.0
297 2.0
298 2.0
299 4.0
300 2.0
301 4.0
302 4.0
303 4.0
304 2.0
305 2.0
306 2.0
307 2.0
308 2.0
309 -4.0
310 4.0
311 2.0
312 2.0
313 4.0
314 2.0
315 -2.0
316 -2.0
317 4.0
318 2.0
319 4.0
320 4.0
321 4.0
322 4.0
323 2.0
324 2.0
325 2.0
326 -4.0
327 -2.0
328 2.0
329 4.0
330 4.0
331 4.0
332 2.0
333 2.0
334 2.0
335 -4.0
336 -2.0
337 4.0
338 2.0
339 4.0
340 4.0
341 4.0
342 -2.0
343 4.0
344 2.0
345 4.0
346 -2.0
347 4.0
348 2.0
349 2.0
350 2.0
351 2.0
352 2.0
353 -4.0
354 -2.0
355 4.0
356 4.0
357 4.0
358 2.0
359 2.0
360 2.0
361 4.0
362 2.0
363 2.0
364 -4.0
365 -2.0
366 2.0
367 4.0
368 2.0
369 4.0
370 2.0
371 4.0
372 -2.0
373 2.0
374 4.0
375 4.0
376 2.0
377 2.0
378 2.0
379 2.0
380 2.0
381 2.0
382 -4.0
383 4.0
384 4.0
385 4.0
386 2.0
387 2.0
388 2.0
389 -2.0
390 2.0
391 2.0
392 2.0
393 -4.0
394 4.0
395 4.0
396 4.0
397 4.0
398 4.0
399 2.0
400 4.0
401 -2.0
402 -2.0
403 2.0
404 4.0
405 2.0
406 2.0
407 2.0
408 2.0
409 4.0
410 2.0
411 4.0
412 2.0
413 4.0
414 2.0
415 -2.0
416 4.0
417 2.0
418 2.0
419 2.0
420 -2.0
421 2.0
422 2.0
423 2.0
424 2.0
425 -2.0
426 -4.0
427 2.0
428 4.0
429 4.0
430 4.0
431 4.0
432 4.0
433 4.0
434 -2.0
435 -2.0
436 2.0
437 2.0
438 4.0
439 2.0
440 2.0
441 2.0
442 2.0
443 4.0
444 2.0
445 2.0
446 2.0
447 -4.0
448 4.0
449 -2.0
450 -2.0
451 2.0
452 -2.0
453 -2.0
454 4.0
455 -2.0
456 2.0
457 2.0
458 2.0
459 2.0
460 2.0
461 -2.0
462 -2.0
463 2.0
464 -2.0
465 4.0
466 2.0
467 2.0
468 4.0
469 2.0
470 -2.0
471 2.0
472 2.0
473 2.0
474 4.0
475 4.0
476 4.0
477 2.0
478 2.0
479 2.0
480 2.0
481 2.0
482 2.0
483 4.0
484 2.0
485 2.0
486 4.0
487 -2.0
488 4.0
489 -2.0
490 2.0
491 -2.0
492 4.0
493 -2.0
494 4.0
495 -4.0
496 4.0
497 -2.0
498 2.0
499 2.0
500 -2.0
501 2.0
502 -2.0
503 2.0
504 -2.0
505 4.0
506 2.0
507 2.0
508 2.0
509 4.0
510 4.0
511 4.0
512 4.0
513 4.0
514 2.0
515 2.0
516 2.0
517 4.0
518 2.0
519 2.0
520 2.0
521 2.0
522 2.0
523 4.0
524 2.0
525 -2.0
526 2.0
527 -2.0
528 4.0
529 -2.0
530 4.0
531 -2.0
532 2.0
533 -2.0
534 4.0
535 2.0
536 2.0
537 4.0
538 -2.0
539 4.0
540 -2.0
541 2.0
542 -2.0
543 2.0
544 2.0
545 2.0
546 -2.0
547 4.0
548 2.0
549 2.0
550 2.0
551 2.0
552 4.0
553 4.0
554 4.0
555 2.0
556 4.0
557 2.0
558 2.0
559 2.0
560 4.0
561 -2.0
0.0 # objective constant
1.79769313486232E+308 # value for infinity
0.0 # default variable primal value in starting point
0 # number of non-default variable primal values in starting point
0.0 # default variable bound dual value in starting point
0 # number of non-default variable bound dual values in starting point
0 # number of non-default variable names
0 # number of non-default constraint names
